clingo version 5.4.0
Reading from ...sets/logs/0_8x8_clingo/knights_tour.lp ...
Solving...
Answer: 1
occ(1,8,1) occ(1,8,7) occ(1,1,4) occ(1,7,1) occ(1,5,1) occ(2,5,4) occ(3,4,1) halting_time(3)
Optimization: -3
Answer: 2
occ(1,8,1) occ(1,8,7) occ(1,1,4) occ(1,7,1) occ(1,5,1) occ(2,5,4) occ(3,4,1) occ(5,2,2) halting_time(5)
Optimization: -5
Answer: 3
occ(1,8,1) occ(1,8,7) occ(1,1,4) occ(1,7,1) occ(1,5,1) occ(2,5,4) occ(3,4,1) occ(4,4,2) occ(5,6,2) occ(7,7,4) halting_time(7)
Optimization: -7
Answer: 4
occ(1,8,1) occ(1,8,7) occ(1,1,4) occ(1,7,1) occ(1,5,1) occ(2,5,4) occ(3,4,1) occ(7,3,4) occ(5,5,3) occ(4,7,3) occ(8,7,7) occ(6,8,5) halting_time(8)
Optimization: -8
Answer: 5
occ(1,8,1) occ(1,8,7) occ(1,1,4) occ(1,7,1) occ(1,5,1) occ(2,5,4) occ(3,4,1) occ(9,1,5) occ(7,3,4) occ(5,5,3) occ(4,7,3) occ(8,7,7) occ(6,8,5) halting_time(9)
Optimization: -9
Answer: 6
occ(1,8,1) occ(1,8,7) occ(1,1,4) occ(1,7,1) occ(1,5,1) occ(2,5,4) occ(3,4,1) occ(5,5,3) occ(10,5,8) occ(4,7,3) occ(8,7,7) occ(6,8,5) halting_time(10)
Optimization: -10
Answer: 7
occ(1,8,1) occ(1,8,7) occ(1,1,4) occ(1,7,1) occ(1,5,1) occ(2,5,4) occ(3,4,1) occ(11,1,2) occ(9,3,1) occ(7,4,3) occ(10,5,8) occ(5,6,2) occ(4,7,3) occ(8,7,7) occ(6,8,5) halting_time(11)
Optimization: -11
Answer: 8
occ(1,8,1) occ(1,8,7) occ(1,1,4) occ(1,7,1) occ(1,5,1) occ(2,5,4) occ(3,4,1) occ(8,1,3) occ(11,1,2) occ(12,1,1) occ(6,2,1) occ(9,3,1) occ(10,3,2) occ(4,4,2) occ(7,4,3) occ(5,6,2) halting_time(12)
Optimization: -12
Answer: 9
occ(1,8,1) occ(1,8,7) occ(1,1,4) occ(1,7,1) occ(1,5,1) occ(2,5,4) occ(3,4,1) occ(6,2,5) occ(8,3,3) occ(4,4,6) occ(10,4,5) occ(12,5,3) occ(5,6,2) occ(14,7,2) halting_time(14)
Optimization: -14
Answer: 10
occ(1,8,1) occ(1,8,7) occ(1,1,4) occ(1,7,1) occ(1,5,1) occ(2,5,4) occ(3,4,1) occ(11,1,8) occ(10,2,5) occ(13,2,6) occ(14,2,1) occ(9,3,7) occ(12,3,3) occ(15,3,8) occ(7,4,5) occ(8,4,4) occ(5,5,3) occ(6,6,3) occ(4,7,5) halting_time(15)
Optimization: -15
Answer: 11
occ(1,8,1) occ(1,8,7) occ(1,1,4) occ(1,7,1) occ(1,5,1) occ(2,5,4) occ(3,4,1) occ(11,1,8) occ(15,1,6) occ(16,1,3) occ(5,2,2) occ(9,2,6) occ(14,2,1) occ(7,3,4) occ(12,3,3) occ(13,3,7) occ(10,4,5) occ(4,6,2) occ(8,6,6) occ(6,7,4) halting_time(16)
Optimization: -16
Answer: 12
occ(1,8,1) occ(1,8,7) occ(1,1,4) occ(1,7,1) occ(1,5,1) occ(2,5,4) occ(3,4,1) occ(11,1,8) occ(15,1,6) occ(16,1,3) occ(5,2,2) occ(9,2,6) occ(14,2,1) occ(7,3,4) occ(12,3,3) occ(13,3,7) occ(18,3,2) occ(10,4,5) occ(4,6,2) occ(8,6,6) occ(6,7,4) halting_time(18)
Optimization: -18
Answer: 13
occ(1,8,1) occ(1,8,7) occ(1,1,4) occ(1,7,1) occ(1,5,1) occ(2,5,4) occ(3,4,1) occ(11,1,8) occ(16,1,3) occ(5,2,2) occ(9,2,6) occ(14,2,1) occ(7,3,4) occ(12,3,3) occ(13,3,7) occ(18,3,2) occ(10,4,5) occ(15,5,8) occ(4,6,2) occ(8,6,6) occ(6,7,4) occ(17,7,7) occ(19,8,5) halting_time(19)
Optimization: -19
Answer: 14
occ(1,8,1) occ(1,8,7) occ(1,1,4) occ(1,7,1) occ(1,5,1) occ(2,5,4) occ(3,4,1) occ(11,1,8) occ(5,2,2) occ(9,2,6) occ(7,3,4) occ(13,3,7) occ(12,4,6) occ(15,4,5) occ(19,4,7) occ(8,5,3) occ(14,5,8) occ(4,6,2) occ(10,6,5) occ(17,6,6) occ(6,7,4) occ(16,7,7) occ(20,7,3) occ(18,8,5) halting_time(20)
Optimization: -20
Answer: 15
occ(1,8,1) occ(1,8,7) occ(1,1,4) occ(1,7,1) occ(1,5,1) occ(2,5,4) occ(3,4,1) occ(11,1,8) occ(5,2,2) occ(9,2,6) occ(7,3,4) occ(13,3,7) occ(12,4,6) occ(15,4,5) occ(19,4,7) occ(8,5,3) occ(14,5,8) occ(4,6,2) occ(10,6,5) occ(17,6,6) occ(22,6,1) occ(6,7,4) occ(16,7,7) occ(20,7,3) occ(18,8,5) halting_time(22)
Optimization: -22
Answer: 16
occ(1,8,1) occ(1,8,7) occ(1,1,4) occ(1,7,1) occ(1,5,1) occ(2,5,4) occ(3,4,1) occ(11,1,8) occ(16,1,5) occ(22,1,2) occ(7,2,5) occ(13,2,6) occ(14,2,7) occ(18,2,3) occ(5,3,3) occ(9,3,7) occ(20,3,1) occ(12,4,6) occ(15,4,7) occ(19,4,5) occ(8,5,3) occ(21,5,7) occ(4,6,2) occ(10,6,5) occ(17,6,6) occ(6,7,4) occ(23,7,8) halting_time(23)
Optimization: -23
Answer: 17
occ(1,8,1) occ(1,8,7) occ(1,1,4) occ(1,7,1) occ(1,5,1) occ(2,5,4) occ(3,4,1) occ(11,1,8) occ(16,1,5) occ(20,1,1) occ(24,1,3) occ(5,2,2) occ(6,2,1) occ(9,2,6) occ(10,2,5) occ(14,2,7) occ(18,2,3) occ(7,3,4) occ(8,3,3) occ(13,3,7) occ(22,3,2) occ(4,4,2) occ(12,4,6) occ(15,4,5) occ(17,6,6) occ(23,6,1) occ(19,7,4) occ(21,8,2) halting_time(24)
Optimization: -24
Answer: 18
occ(1,8,1) occ(1,8,7) occ(1,1,4) occ(1,7,1) occ(1,5,1) occ(2,5,4) occ(3,4,1) occ(11,1,2) occ(13,2,4) occ(22,2,5) occ(26,2,7) occ(9,3,1) occ(10,3,4) occ(20,3,3) occ(7,4,3) occ(15,4,5) occ(24,4,6) occ(8,5,3) occ(12,5,5) occ(18,5,2) occ(5,6,2) occ(6,6,5) occ(16,6,4) occ(17,6,6) occ(23,6,1) occ(4,7,3) occ(14,7,6) occ(19,7,4) occ(21,8,2) halting_time(26)
Optimization: -26
Answer: 19
occ(1,8,1) occ(1,8,7) occ(1,1,4) occ(1,7,1) occ(1,5,1) occ(2,5,4) occ(3,4,1) occ(26,1,2) occ(27,1,6) occ(25,2,8) occ(6,3,4) occ(24,3,3) occ(4,4,2) occ(7,4,3) occ(12,4,6) occ(15,4,5) occ(23,4,7) occ(8,5,3) occ(13,5,7) occ(14,5,8) occ(21,5,5) occ(22,5,2) occ(5,6,2) occ(9,6,4) occ(10,6,5) occ(17,6,6) occ(11,7,6) occ(16,7,7) occ(19,7,4) occ(20,7,3) occ(18,8,5) halting_time(27)
Optimization: -27
Answer: 20
occ(1,8,1) occ(1,8,7) occ(1,1,4) occ(1,7,1) occ(1,5,1) occ(2,5,4) occ(3,4,1) occ(14,1,6) occ(18,1,2) occ(5,2,2) occ(16,2,4) occ(7,3,4) occ(12,3,5) occ(20,3,3) occ(9,4,6) occ(10,4,3) occ(19,4,7) occ(22,4,5) occ(17,5,5) occ(23,5,8) occ(24,5,3) occ(8,6,4) occ(11,6,5) occ(21,6,6) occ(4,7,5) occ(15,7,4) occ(25,7,7) occ(26,7,2) occ(6,8,3) occ(13,8,6) occ(28,8,4) halting_time(28)
Optimization: -28
Answer: 21
occ(1,8,1) occ(1,8,7) occ(1,1,4) occ(1,7,1) occ(1,5,1) occ(2,5,4) occ(3,4,1) occ(14,1,6) occ(18,1,2) occ(5,2,2) occ(16,2,4) occ(7,3,4) occ(12,3,5) occ(20,3,3) occ(9,4,6) occ(10,4,3) occ(19,4,7) occ(22,4,5) occ(17,5,5) occ(24,5,3) occ(8,6,4) occ(11,6,5) occ(21,6,6) occ(4,7,5) occ(15,7,4) occ(25,7,7) occ(26,7,2) occ(30,7,6) occ(6,8,3) occ(13,8,6) occ(23,8,5) occ(28,8,4) halting_time(30)
Optimization: -30
Answer: 22
occ(1,8,1) occ(1,8,7) occ(1,1,4) occ(1,7,1) occ(1,5,1) occ(2,5,4) occ(3,4,1) occ(18,1,2) occ(30,1,6) occ(5,2,2) occ(14,2,3) occ(28,2,8) occ(7,3,4) occ(16,3,1) occ(20,3,3) occ(21,3,5) occ(9,4,6) occ(12,4,4) occ(19,4,3) occ(22,4,5) occ(26,4,7) occ(10,5,2) occ(13,5,3) occ(17,5,5) occ(23,5,6) occ(8,6,4) occ(11,6,5) occ(24,6,6) occ(25,6,8) occ(31,6,7) occ(4,7,5) occ(15,7,4) occ(27,7,6) occ(6,8,3) occ(29,8,8) halting_time(31)
Optimization: -31
Answer: 23
occ(1,8,1) occ(1,8,7) occ(1,1,4) occ(1,7,1) occ(1,5,1) occ(2,5,4) occ(3,4,1) occ(20,1,3) occ(30,1,6) occ(14,2,1) occ(22,2,5) occ(28,2,8) occ(32,2,4) occ(12,3,3) occ(13,3,7) occ(18,3,4) occ(21,3,5) occ(26,3,6) occ(10,4,5) occ(16,4,2) occ(19,4,7) occ(23,4,3) occ(24,4,4) occ(5,5,3) occ(11,5,6) occ(15,5,8) occ(25,5,5) occ(7,6,5) occ(8,6,4) occ(17,6,6) occ(4,7,5) occ(9,7,7) occ(27,7,6) occ(6,8,3) occ(29,8,8) halting_time(32)
Optimization: -32
Answer: 24
occ(1,8,1) occ(1,8,7) occ(1,1,4) occ(1,7,1) occ(1,5,1) occ(2,5,4) occ(3,4,1) occ(9,1,3) occ(15,1,2) occ(28,1,7) occ(34,1,8) occ(5,2,2) occ(13,2,4) occ(22,2,5) occ(32,2,6) occ(4,3,5) occ(7,3,4) occ(11,3,2) occ(17,3,1) occ(20,3,3) occ(26,3,6) occ(30,3,8) occ(6,4,7) occ(18,4,5) occ(19,4,3) occ(24,4,4) occ(16,5,3) occ(21,5,5) occ(8,6,6) occ(14,6,1) occ(23,6,3) occ(10,7,4) occ(27,7,6) occ(12,8,2) occ(25,8,4) occ(29,8,8) halting_time(34)
Optimization: -34
Answer: 25
occ(1,8,1) occ(1,8,7) occ(1,1,4) occ(1,7,1) occ(1,5,1) occ(2,5,4) occ(3,4,1) occ(23,1,6) occ(24,1,7) occ(27,1,2) occ(32,1,1) occ(36,1,3) occ(6,2,1) occ(17,2,6) occ(21,2,8) occ(25,2,4) occ(26,2,5) occ(30,2,3) occ(35,2,7) occ(4,3,3) occ(15,3,8) occ(18,3,4) occ(22,3,6) occ(29,3,1) occ(33,3,5) occ(34,3,2) occ(49,3,7) occ(8,4,2) occ(16,4,6) occ(19,4,7) occ(28,4,4) occ(31,4,3) occ(37,4,8) occ(51,4,5) occ(9,5,3) occ(13,5,7) occ(20,5,5) occ(39,5,6) occ(47,5,8) occ(55,5,2) occ(5,6,2) occ(10,6,3) occ(11,6,5) occ(14,6,7) occ(45,6,6) occ(53,6,4) occ(59,6,1) occ(7,7,4) occ(12,7,5) occ(41,7,7) occ(57,7,3) occ(43,8,5) occ(61,8,2) halting_time(61)
Optimization: -61
Answer: 26
occ(1,8,1) occ(1,8,7) occ(1,1,4) occ(1,7,1) occ(1,5,1) occ(2,5,4) occ(3,4,1) occ(28,1,1) occ(54,1,8) occ(64,1,7) occ(15,2,7) occ(18,2,1) occ(26,2,3) occ(32,2,4) occ(52,2,6) occ(58,2,5) occ(11,3,8) occ(20,3,3) occ(24,3,1) occ(30,3,2) occ(40,3,5) occ(50,3,4) occ(56,3,7) occ(62,3,6) occ(13,4,6) occ(16,4,2) occ(17,4,8) occ(34,4,5) occ(42,4,7) occ(60,4,4) occ(5,5,3) occ(9,5,7) occ(22,5,2) occ(38,5,6) occ(48,5,5) occ(4,6,2) occ(7,6,5) occ(10,6,3) occ(14,6,1) occ(19,6,7) occ(36,6,4) occ(44,6,6) occ(8,7,5) occ(23,7,6) occ(46,7,4) occ(6,8,3) occ(12,8,2) occ(21,8,8) occ(25,8,4) halting_time(64)
Optimization: -64
OPTIMUM FOUND

Models       : 26
  Optimum    : yes
Optimization : -64
Calls        : 1
Time         : 0.419s (Solving: 0.03s 1st Model: 0.00s Unsat: 0.00s)
CPU Time     : 0.418s
